c nIsolatedPIs 0
c maxPI 32
p cnf 206 523
c gate 33 4 20 0
4 -33 0
20 -33 0
-4 -20 33 0
c gate 34 -4 -20 0
-4 -34 0
-20 -34 0
4 20 34 0
c gate 35 -33 -34 0
-33 -35 0
-34 -35 0
33 34 35 0
c gate 36 3 19 0
3 -36 0
19 -36 0
-3 -19 36 0
c gate 37 2 18 0
2 -37 0
18 -37 0
-2 -18 37 0
c gate 38 -2 -18 0
-2 -38 0
-18 -38 0
2 18 38 0
c gate 39 1 17 0
1 -39 0
17 -39 0
-1 -17 39 0
c gate 40 -38 39 0
-38 -40 0
39 -40 0
38 -39 40 0
c gate 41 -37 -40 0
-37 -41 0
-40 -41 0
37 40 41 0
c gate 42 18 -41 0
18 -42 0
-41 -42 0
-18 41 42 0
c gate 43 -36 -42 0
-36 -43 0
-42 -43 0
36 42 43 0
c gate 44 35 -43 0
35 -44 0
-43 -44 0
-35 43 44 0
c gate 45 -33 -44 0
-33 -45 0
-44 -45 0
33 44 45 0
c gate 46 -3 -19 0
-3 -46 0
-19 -46 0
3 19 46 0
c gate 47 -41 -46 0
-41 -47 0
-46 -47 0
41 46 47 0
c gate 48 -36 -47 0
-36 -48 0
-47 -48 0
36 47 48 0
c gate 49 35 48 0
35 -49 0
48 -49 0
-35 -48 49 0
c gate 50 -34 -49 0
-34 -50 0
-49 -50 0
34 49 50 0
c gate 51 5 21 0
5 -51 0
21 -51 0
-5 -21 51 0
c gate 52 -5 -21 0
-5 -52 0
-21 -52 0
5 21 52 0
c gate 53 -51 -52 0
-51 -53 0
-52 -53 0
51 52 53 0
c gate 54 -50 53 0
-50 -54 0
53 -54 0
50 -53 54 0
c gate 55 -45 54 0
-45 -55 0
54 -55 0
45 -54 55 0
c gate 56 45 -53 0
45 -56 0
-53 -56 0
-45 53 56 0
c gate 57 50 56 0
50 -57 0
56 -57 0
-50 -56 57 0
c gate 58 -55 -57 0
-55 -58 0
-57 -58 0
55 57 58 0
c gate 59 -35 -48 0
-35 -59 0
-48 -59 0
35 48 59 0
c gate 60 -49 -59 0
-49 -60 0
-59 -60 0
49 59 60 0
c gate 61 -35 43 0
-35 -61 0
43 -61 0
35 -43 61 0
c gate 62 -44 -61 0
-44 -62 0
-61 -62 0
44 61 62 0
c gate 63 60 62 0
60 -63 0
62 -63 0
-60 -62 63 0
c gate 64 -60 -62 0
-60 -64 0
-62 -64 0
60 62 64 0
c gate 65 -63 -64 0
-63 -65 0
-64 -65 0
63 64 65 0
c gate 66 35 -65 0
35 -66 0
-65 -66 0
-35 65 66 0
c gate 67 -37 40 0
-37 -67 0
40 -67 0
37 -40 67 0
c gate 68 -36 -46 0
-36 -68 0
-46 -68 0
36 46 68 0
c gate 69 67 68 0
67 -69 0
68 -69 0
-67 -68 69 0
c gate 70 -63 -69 0
-63 -70 0
-69 -70 0
63 69 70 0
c gate 71 -64 -70 0
-64 -71 0
-70 -71 0
64 70 71 0
c gate 72 -66 -71 0
-66 -72 0
-71 -72 0
66 71 72 0
c gate 73 15 31 0
15 -73 0
31 -73 0
-15 -31 73 0
c gate 74 -15 -31 0
-15 -74 0
-31 -74 0
15 31 74 0
c gate 75 -14 -30 0
-14 -75 0
-30 -75 0
14 30 75 0
c gate 76 -74 -75 0
-74 -76 0
-75 -76 0
74 75 76 0
c gate 77 14 30 0
14 -77 0
30 -77 0
-14 -30 77 0
c gate 78 13 29 0
13 -78 0
29 -78 0
-13 -29 78 0
c gate 79 -77 -78 0
-77 -79 0
-78 -79 0
77 78 79 0
c gate 80 -11 -27 0
-11 -80 0
-27 -80 0
11 27 80 0
c gate 81 -10 -26 0
-10 -81 0
-26 -81 0
10 26 81 0
c gate 82 -80 -81 0
-80 -82 0
-81 -82 0
80 81 82 0
c gate 83 9 25 0
9 -83 0
25 -83 0
-9 -25 83 0
c gate 84 10 26 0
10 -84 0
26 -84 0
-10 -26 84 0
c gate 85 -83 -84 0
-83 -85 0
-84 -85 0
83 84 85 0
c gate 86 -8 -24 0
-8 -86 0
-24 -86 0
8 24 86 0
c gate 87 -9 -25 0
-9 -87 0
-25 -87 0
9 25 87 0
c gate 88 -86 -87 0
-86 -88 0
-87 -88 0
86 87 88 0
c gate 89 8 24 0
8 -89 0
24 -89 0
-8 -24 89 0
c gate 90 -86 -89 0
-86 -90 0
-89 -90 0
86 89 90 0
c gate 91 7 23 0
7 -91 0
23 -91 0
-7 -23 91 0
c gate 92 -7 -23 0
-7 -92 0
-23 -92 0
7 23 92 0
c gate 93 -6 -22 0
-6 -93 0
-22 -93 0
6 22 93 0
c gate 94 6 22 0
6 -94 0
22 -94 0
-6 -22 94 0
c gate 95 -93 -94 0
-93 -95 0
-94 -95 0
93 94 95 0
c gate 96 -52 -54 0
-52 -96 0
-54 -96 0
52 54 96 0
c gate 97 95 -96 0
95 -97 0
-96 -97 0
-95 96 97 0
c gate 98 -93 -97 0
-93 -98 0
-97 -98 0
93 97 98 0
c gate 99 -92 98 0
-92 -99 0
98 -99 0
92 -98 99 0
c gate 100 -91 -99 0
-91 -100 0
-99 -100 0
91 99 100 0
c gate 101 90 100 0
90 -101 0
100 -101 0
-90 -100 101 0
c gate 102 88 -101 0
88 -102 0
-101 -102 0
-88 101 102 0
c gate 103 85 -102 0
85 -103 0
-102 -103 0
-85 102 103 0
c gate 104 82 -103 0
82 -104 0
-103 -104 0
-82 103 104 0
c gate 105 11 27 0
11 -105 0
27 -105 0
-11 -27 105 0
c gate 106 12 28 0
12 -106 0
28 -106 0
-12 -28 106 0
c gate 107 -105 -106 0
-105 -107 0
-106 -107 0
105 106 107 0
c gate 108 -104 107 0
-104 -108 0
107 -108 0
104 -107 108 0
c gate 109 -13 -29 0
-13 -109 0
-29 -109 0
13 29 109 0
c gate 110 -12 -28 0
-12 -110 0
-28 -110 0
12 28 110 0
c gate 111 -109 -110 0
-109 -111 0
-110 -111 0
109 110 111 0
c gate 112 -108 111 0
-108 -112 0
111 -112 0
108 -111 112 0
c gate 113 79 -112 0
79 -113 0
-112 -113 0
-79 112 113 0
c gate 114 76 -113 0
76 -114 0
-113 -114 0
-76 113 114 0
c gate 115 -73 -114 0
-73 -115 0
-114 -115 0
73 114 115 0
c gate 116 -16 -32 0
-16 -116 0
-32 -116 0
16 32 116 0
c gate 117 16 32 0
16 -117 0
32 -117 0
-16 -32 117 0
c gate 118 -116 -117 0
-116 -118 0
-117 -118 0
116 117 118 0
c gate 119 115 -118 0
115 -119 0
-118 -119 0
-115 118 119 0
c gate 120 -115 118 0
-115 -120 0
118 -120 0
115 -118 120 0
c gate 121 -119 -120 0
-119 -121 0
-120 -121 0
119 120 121 0
c gate 122 82 -105 0
82 -122 0
-105 -122 0
-82 105 122 0
c gate 123 -91 -92 0
-91 -123 0
-92 -123 0
91 92 123 0
c gate 124 -45 -52 0
-45 -124 0
-52 -124 0
45 52 124 0
c gate 125 -51 -124 0
-51 -125 0
-124 -125 0
51 124 125 0
c gate 126 95 -125 0
95 -126 0
-125 -126 0
-95 125 126 0
c gate 127 -94 -126 0
-94 -127 0
-126 -127 0
94 126 127 0
c gate 128 123 -127 0
123 -128 0
-127 -128 0
-123 127 128 0
c gate 129 -91 -128 0
-91 -129 0
-128 -129 0
91 128 129 0
c gate 130 -89 129 0
-89 -130 0
129 -130 0
89 -129 130 0
c gate 131 88 -130 0
88 -131 0
-130 -131 0
-88 130 131 0
c gate 132 85 -131 0
85 -132 0
-131 -132 0
-85 131 132 0
c gate 133 122 -132 0
122 -133 0
-132 -133 0
-122 132 133 0
c gate 134 107 -133 0
107 -134 0
-133 -134 0
-107 133 134 0
c gate 135 111 -134 0
111 -135 0
-134 -135 0
-111 134 135 0
c gate 136 79 -135 0
79 -136 0
-135 -136 0
-79 135 136 0
c gate 137 -75 -136 0
-75 -137 0
-136 -137 0
75 136 137 0
c gate 138 -73 -137 0
-73 -138 0
-137 -138 0
73 137 138 0
c gate 139 -74 -138 0
-74 -139 0
-138 -139 0
74 138 139 0
c gate 140 -118 139 0
-118 -140 0
139 -140 0
118 -139 140 0
c gate 141 118 -139 0
118 -141 0
-139 -141 0
-118 139 141 0
c gate 142 -140 -141 0
-140 -142 0
-141 -142 0
140 141 142 0
c gate 143 -121 -142 0
-121 -143 0
-142 -143 0
121 142 143 0
c gate 144 -73 -109 0
-73 -144 0
-109 -144 0
73 109 144 0
c gate 145 76 144 0
76 -145 0
144 -145 0
-76 -144 145 0
c gate 146 79 145 0
79 -146 0
145 -146 0
-79 -145 146 0
c gate 147 133 -146 0
133 -147 0
-146 -147 0
-133 146 147 0
c gate 148 -106 -110 0
-106 -148 0
-110 -148 0
106 110 148 0
c gate 149 -105 148 0
-105 -149 0
148 -149 0
105 -148 149 0
c gate 150 -147 149 0
-147 -150 0
149 -150 0
147 -149 150 0
c gate 151 104 146 0
104 -151 0
146 -151 0
-104 -146 151 0
c gate 152 -104 -133 0
-104 -152 0
-133 -152 0
104 133 152 0
c gate 153 -151 -152 0
-151 -153 0
-152 -153 0
151 152 153 0
c gate 154 150 153 0
150 -154 0
153 -154 0
-150 -153 154 0
c gate 155 -143 154 0
-143 -155 0
154 -155 0
143 -154 155 0
c gate 156 121 142 0
121 -156 0
142 -156 0
-121 -142 156 0
c gate 157 -90 -100 0
-90 -157 0
-100 -157 0
90 100 157 0
c gate 158 -101 -157 0
-101 -158 0
-157 -158 0
101 157 158 0
c gate 159 90 -129 0
90 -159 0
-129 -159 0
-90 129 159 0
c gate 160 -90 129 0
-90 -160 0
129 -160 0
90 -129 160 0
c gate 161 -159 -160 0
-159 -161 0
-160 -161 0
159 160 161 0
c gate 162 158 161 0
158 -162 0
161 -162 0
-158 -161 162 0
c gate 163 -158 -161 0
-158 -163 0
-161 -163 0
158 161 163 0
c gate 164 -162 -163 0
-162 -164 0
-163 -164 0
162 163 164 0
c gate 165 90 -164 0
90 -165 0
-164 -165 0
-90 164 165 0
c gate 166 85 -87 0
85 -166 0
-87 -166 0
-85 87 166 0
c gate 167 122 166 0
122 -167 0
166 -167 0
-122 -166 167 0
c gate 168 99 -167 0
99 -168 0
-167 -168 0
-99 167 168 0
c gate 169 -128 -148 0
-128 -169 0
-148 -169 0
128 148 169 0
c gate 170 -168 -169 0
-168 -170 0
-169 -170 0
168 169 170 0
c gate 171 165 170 0
165 -171 0
170 -171 0
-165 -170 171 0
c gate 172 -156 171 0
-156 -172 0
171 -172 0
156 -171 172 0
c gate 173 -155 172 0
-155 -173 0
172 -173 0
155 -172 173 0
c gate 174 -123 127 0
-123 -174 0
127 -174 0
123 -127 174 0
c gate 175 -128 -174 0
-128 -175 0
-174 -175 0
128 174 175 0
c gate 176 -98 123 0
-98 -176 0
123 -176 0
98 -123 176 0
c gate 177 98 -123 0
98 -177 0
-123 -177 0
-98 123 177 0
c gate 178 -176 -177 0
-176 -178 0
-177 -178 0
176 177 178 0
c gate 179 175 178 0
175 -179 0
178 -179 0
-175 -178 179 0
c gate 180 -175 -178 0
-175 -180 0
-178 -180 0
175 178 180 0
c gate 181 -95 125 0
-95 -181 0
125 -181 0
95 -125 181 0
c gate 182 -126 -181 0
-126 -182 0
-181 -182 0
126 181 182 0
c gate 183 -95 96 0
-95 -183 0
96 -183 0
95 -96 183 0
c gate 184 -97 -183 0
-97 -184 0
-183 -184 0
97 183 184 0
c gate 185 -182 -184 0
-182 -185 0
-184 -185 0
182 184 185 0
c gate 186 182 184 0
182 -186 0
184 -186 0
-182 -184 186 0
c gate 187 -58 -186 0
-58 -187 0
-186 -187 0
58 186 187 0
c gate 188 -185 -187 0
-185 -188 0
-187 -188 0
185 187 188 0
c gate 189 -180 188 0
-180 -189 0
188 -189 0
180 -188 189 0
c gate 190 -41 -68 0
-41 -190 0
-68 -190 0
41 68 190 0
c gate 191 -18 -41 0
-18 -191 0
-41 -191 0
18 41 191 0
c gate 192 -190 -191 0
-190 -192 0
-191 -192 0
190 191 192 0
c gate 193 72 -192 0
72 -193 0
-192 -193 0
-72 192 193 0
c gate 194 189 -193 0
189 -194 0
-193 -194 0
-189 193 194 0
c gate 195 -179 -194 0
-179 -195 0
-194 -195 0
179 194 195 0
c gate 196 -162 195 0
-162 -196 0
195 -196 0
162 -195 196 0
c gate 197 -163 -165 0
-163 -197 0
-165 -197 0
163 165 197 0
c gate 198 -196 197 0
-196 -198 0
197 -198 0
196 -197 198 0
c gate 199 -173 -198 0
-173 -199 0
-198 -199 0
173 198 199 0
c gate 200 -72 199 0
-72 -200 0
199 -200 0
72 -199 200 0
c gate 201 58 200 0
58 -201 0
200 -201 0
-58 -200 201 0
c gate 202 -185 -186 0
-185 -202 0
-186 -202 0
185 186 202 0
c gate 203 58 -193 0
58 -203 0
-193 -203 0
-58 193 203 0
c gate 204 -199 -203 0
-199 -204 0
-203 -204 0
199 203 204 0
c gate 205 -202 -204 0
-202 -205 0
-204 -205 0
202 204 205 0
c gate 206 -201 205 0
-201 -206 0
205 -206 0
201 -205 206 0
c PO
206 0
